10 3 42 60 20 76 48 38 78 14 8 0 73 29 31 26 74 16 70 21 35 41 61 23 55 9 15 79 30 71 39 27 50 66 69 28 45 19 7 53 58 17 36 37 32 11 24 40 44 52 57 18 33 63 49 5 43 47 34 51 72 64 75 25 77 2 13 68 6 46 22 12 4 1 59 62 67 54 56 65
